(declare-const X String)
; www\x2Elookster\x2Enetnotificationuuid=qisezhin\x2fiqor\.ym
(assert (str.in.re X (str.to.re "www.lookster.netnotification\x13uuid=qisezhin/iqor.ym\x13\x0a")))
; (\d{5}-\d{4}|\d{5})
(assert (not (str.in.re X (re.++ (re.union (re.++ ((_ re.loop 5 5) (re.range "0" "9")) (str.to.re "-") ((_ re.loop 4 4) (re.range "0" "9"))) ((_ re.loop 5 5) (re.range "0" "9"))) (str.to.re "\x0a")))))
; (((ht|f)tp(s?):\/\/)|(([\w]{1,})\.[^ \[\]\(\)\n\r\t]+)|(([012]?[0-9]{1,2}\.){3}[012]?[0-9]{1,2})\/)([^ \[\]\(\),;"'<>\n\r\t]+)([^\. \[\]\(\),;"'<>\n\r\t])|(([012]?[0-9]{1,2}\.){3}[012]?[0-9]{1,2})
(assert (not (str.in.re X (re.union (re.++ (re.union (re.++ (re.union (str.to.re "ht") (str.to.re "f")) (str.to.re "tp") (re.opt (str.to.re "s")) (str.to.re "://")) (re.++ (re.+ (re.union (re.range "0" "9") (re.range "A" "Z") (re.range "a" "z") (str.to.re "_"))) (str.to.re ".") (re.+ (re.union (str.to.re " ") (str.to.re "[") (str.to.re "]") (str.to.re "(") (str.to.re ")") (str.to.re "\x0a") (str.to.re "\x0d") (str.to.re "\x09")))) (re.++ (str.to.re "/") ((_ re.loop 3 3) (re.++ (re.opt (re.union (str.to.re "0") (str.to.re "1") (str.to.re "2"))) ((_ re.loop 1 2) (re.range "0" "9")) (str.to.re "."))) (re.opt (re.union (str.to.re "0") (str.to.re "1") (str.to.re "2"))) ((_ re.loop 1 2) (re.range "0" "9")))) (re.+ (re.union (str.to.re " ") (str.to.re "[") (str.to.re "]") (str.to.re "(") (str.to.re ")") (str.to.re ",") (str.to.re ";") (str.to.re "\x22") (str.to.re "'") (str.to.re "<") (str.to.re ">") (str.to.re "\x0a") (str.to.re "\x0d") (str.to.re "\x09"))) (re.union (str.to.re ".") (str.to.re " ") (str.to.re "[") (str.to.re "]") (str.to.re "(") (str.to.re ")") (str.to.re ",") (str.to.re ";") (str.to.re "\x22") (str.to.re "'") (str.to.re "<") (str.to.re ">") (str.to.re "\x0a") (str.to.re "\x0d") (str.to.re "\x09"))) (re.++ (str.to.re "\x0a") ((_ re.loop 3 3) (re.++ (re.opt (re.union (str.to.re "0") (str.to.re "1") (str.to.re "2"))) ((_ re.loop 1 2) (re.range "0" "9")) (str.to.re "."))) (re.opt (re.union (str.to.re "0") (str.to.re "1") (str.to.re "2"))) ((_ re.loop 1 2) (re.range "0" "9")))))))
; Referer\x3A.*notification.*qisezhin\x2fiqor\.ymspasServer\x3a
(assert (str.in.re X (re.++ (str.to.re "Referer:") (re.* re.allchar) (str.to.re "notification\x13") (re.* re.allchar) (str.to.re "qisezhin/iqor.ym\x13spasServer:\x0a"))))
; ^[1-9]{1}[0-9]{3}-(0[1-9]{1}|1[0-2]{1})-([0-2]{1}[1-9]{1}|3[0-1]{1}) ([0-1]{1}[0-9]{1}|2[0-3]{1}):[0-5]{1}[0-9]{1}:[0-5]{1}[0-9]{1}$
(assert (str.in.re X (re.++ ((_ re.loop 1 1) (re.range "1" "9")) ((_ re.loop 3 3) (re.range "0" "9")) (str.to.re "-") (re.union (re.++ (str.to.re "0") ((_ re.loop 1 1) (re.range "1" "9"))) (re.++ (str.to.re "1") ((_ re.loop 1 1) (re.range "0" "2")))) (str.to.re "-") (re.union (re.++ ((_ re.loop 1 1) (re.range "0" "2")) ((_ re.loop 1 1) (re.range "1" "9"))) (re.++ (str.to.re "3") ((_ re.loop 1 1) (re.range "0" "1")))) (str.to.re " ") (re.union (re.++ ((_ re.loop 1 1) (re.range "0" "1")) ((_ re.loop 1 1) (re.range "0" "9"))) (re.++ (str.to.re "2") ((_ re.loop 1 1) (re.range "0" "3")))) (str.to.re ":") ((_ re.loop 1 1) (re.range "0" "5")) ((_ re.loop 1 1) (re.range "0" "9")) (str.to.re ":") ((_ re.loop 1 1) (re.range "0" "5")) ((_ re.loop 1 1) (re.range "0" "9")) (str.to.re "\x0a"))))
(check-sat)
